15 5
10 6 8 9 9
8 5 6 7 7
12 7 10 11 10
10 6 8 9 8
8 5 6 7 7
12 7 10 11 10
12 10 11 12 11
9 5 7 9 8
10 6 8 9 8
8 5 6 7 6
15 9 12 14 13
13 7 10 12 11
9 5 6 8 7
10 6 8 10 9
8 5 6 7 7
10 14 12 11 13
6 8 7 6 7
11 16 13 11 12
6 12 8 7 8
10 16 12 12 13
7 12 10 8 9
10 13 10 11 12
4 10 8 5 6
2 4 3 2 3
7 14 11 8 10
8 16 12 10 11
3 6 5 4 5
4 10 7 5 6
2 4 4 3 3
7 14 13 10 11
2 3 4 5 10 1 2 4 10 1 5 2 4 6 2
33 34 31 33 34 34 33 25 38 37 30 20 32 20 25
